c colouring generated by benchmark framework
p edge 1000 246708
v 1 9
v 2 97
v 3 56
v 4 72
v 5 9
v 6 47
v 7 84
v 8 68
v 9 103
v 10 54
v 11 46
v 12 75
v 13 22
v 14 50
v 15 84
v 16 15
v 17 1
v 18 26
v 19 29
v 20 11
v 21 39
v 22 12
v 23 50
v 24 60
v 25 32
v 26 9
v 27 38
v 28 6
v 29 11
v 30 28
v 31 63
v 32 98
v 33 73
v 34 32
v 35 21
v 36 11
v 37 66
v 38 103
v 39 62
v 40 108
v 41 81
v 42 78
v 43 50
v 44 51
v 45 60
v 46 12
v 47 21
v 48 17
v 49 51
v 50 42
v 51 52
v 52 46
v 53 78
v 54 110
v 55 31
v 56 28
v 57 75
v 58 61
v 59 92
v 60 80
v 61 36
v 62 22
v 63 39
v 64 59
v 65 60
v 66 91
v 67 15
v 68 78
v 69 110
v 70 48
v 71 12
v 72 72
v 73 68
v 74 9
v 75 60
v 76 5
v 77 69
v 78 42
v 79 101
v 80 47
v 81 91
v 82 0
v 83 59
v 84 52
v 85 21
v 86 44
v 87 15
v 88 12
v 89 45
v 90 5
v 91 83
v 92 48
v 93 28
v 94 102
v 95 71
v 96 83
v 97 112
v 98 80
v 99 105
v 100 32
v 101 41
v 102 3
v 103 82
v 104 48
v 105 51
v 106 56
v 107 41
v 108 26
v 109 4
v 110 23
v 111 28
v 112 25
v 113 44
v 114 23
v 115 72
v 116 27
v 117 50
v 118 86
v 119 35
v 120 0
v 121 94
v 122 39
v 123 23
v 124 12
v 125 71
v 126 15
v 127 112
v 128 13
v 129 2
v 130 94
v 131 20
v 132 99
v 133 55
v 134 80
v 135 8
v 136 24
v 137 33
v 138 103
v 139 2
v 140 33
v 141 50
v 142 54
v 143 5
v 144 45
v 145 12
v 146 29
v 147 91
v 148 55
v 149 101
v 150 73
v 151 21
v 152 99
v 153 14
v 154 88
v 155 100
v 156 97
v 157 62
v 158 104
v 159 100
v 160 11
v 161 50
v 162 49
v 163 106
v 164 9
v 165 47
v 166 62
v 167 7
v 168 31
v 169 80
v 170 49
v 171 11
v 172 55
v 173 113
v 174 77
v 175 76
v 176 20
v 177 24
v 178 77
v 179 71
v 180 34
v 181 18
v 182 84
v 183 110
v 184 99
v 185 96
v 186 93
v 187 16
v 188 48
v 189 57
v 190 14
v 191 100
v 192 30
v 193 67
v 194 0
v 195 63
v 196 97
v 197 75
v 198 32
v 199 38
v 200 34
v 201 19
v 202 58
v 203 15
v 204 98
v 205 64
v 206 88
v 207 69
v 208 85
v 209 0
v 210 84
v 211 103
v 212 69
v 213 29
v 214 43
v 215 93
v 216 6
v 217 56
v 218 74
v 219 27
v 220 80
v 221 4
v 222 40
v 223 75
v 224 47
v 225 40
v 226 29
v 227 20
v 228 107
v 229 45
v 230 38
v 231 65
v 232 59
v 233 56
v 234 97
v 235 6
v 236 36
v 237 114
v 238 91
v 239 32
v 240 102
v 241 17
v 242 34
v 243 52
v 244 64
v 245 76
v 246 51
v 247 42
v 248 47
v 249 31
v 250 19
v 251 106
v 252 76
v 253 51
v 254 95
v 255 90
v 256 1
v 257 69
v 258 93
v 259 65
v 260 107
v 261 4
v 262 90
v 263 113
v 264 8
v 265 6
v 266 22
v 267 19
v 268 14
v 269 91
v 270 83
v 271 87
v 272 60
v 273 114
v 274 99
v 275 35
v 276 103
v 277 20
v 278 18
v 279 9
v 280 59
v 281 104
v 282 103
v 283 7
v 284 0
v 285 21
v 286 45
v 287 55
v 288 18
v 289 104
v 290 51
v 291 60
v 292 45
v 293 63
v 294 63
v 295 82
v 296 8
v 297 31
v 298 0
v 299 3
v 300 7
v 301 31
v 302 22
v 303 42
v 304 79
v 305 45
v 306 51
v 307 82
v 308 18
v 309 29
v 310 77
v 311 15
v 312 100
v 313 75
v 314 4
v 315 5
v 316 90
v 317 25
v 318 106
v 319 89
v 320 13
v 321 108
v 322 49
v 323 40
v 324 79
v 325 17
v 326 16
v 327 19
v 328 2
v 329 81
v 330 73
v 331 2
v 332 45
v 333 85
v 334 25
v 335 52
v 336 64
v 337 65
v 338 1
v 339 113
v 340 49
v 341 6
v 342 47
v 343 30
v 344 52
v 345 71
v 346 32
v 347 38
v 348 35
v 349 27
v 350 22
v 351 43
v 352 48
v 353 101
v 354 56
v 355 3
v 356 50
v 357 34
v 358 111
v 359 31
v 360 16
v 361 58
v 362 79
v 363 69
v 364 43
v 365 41
v 366 3
v 367 10
v 368 110
v 369 53
v 370 37
v 371 85
v 372 86
v 373 61
v 374 62
v 375 68
v 376 15
v 377 31
v 378 92
v 379 55
v 380 88
v 381 25
v 382 109
v 383 90
v 384 76
v 385 81
v 386 63
v 387 50
v 388 82
v 389 1
v 390 7
v 391 113
v 392 60
v 393 52
v 394 17
v 395 79
v 396 27
v 397 83
v 398 24
v 399 102
v 400 33
v 401 33
v 402 73
v 403 61
v 404 64
v 405 98
v 406 61
v 407 79
v 408 58
v 409 85
v 410 30
v 411 74
v 412 5
v 413 61
v 414 73
v 415 95
v 416 28
v 417 16
v 418 85
v 419 48
v 420 100
v 421 6
v 422 70
v 423 9
v 424 72
v 425 105
v 426 66
v 427 56
v 428 65
v 429 72
v 430 75
v 431 35
v 432 55
v 433 29
v 434 53
v 435 71
v 436 74
v 437 105
v 438 96
v 439 78
v 440 54
v 441 3
v 442 108
v 443 47
v 444 113
v 445 90
v 446 106
v 447 91
v 448 59
v 449 68
v 450 42
v 451 88
v 452 63
v 453 12
v 454 43
v 455 32
v 456 9
v 457 29
v 458 65
v 459 40
v 460 16
v 461 93
v 462 54
v 463 99
v 464 4
v 465 6
v 466 16
v 467 0
v 468 47
v 469 86
v 470 17
v 471 18
v 472 60
v 473 89
v 474 7
v 475 38
v 476 36
v 477 80
v 478 20
v 479 69
v 480 46
v 481 5
v 482 23
v 483 80
v 484 42
v 485 49
v 486 39
v 487 42
v 488 15
v 489 52
v 490 45
v 491 31
v 492 37
v 493 13
v 494 36
v 495 37
v 496 7
v 497 13
v 498 57
v 499 89
v 500 38
v 501 60
v 502 30
v 503 77
v 504 40
v 505 35
v 506 39
v 507 96
v 508 64
v 509 10
v 510 101
v 511 55
v 512 107
v 513 40
v 514 7
v 515 91
v 516 52
v 517 35
v 518 109
v 519 44
v 520 68
v 521 85
v 522 29
v 523 25
v 524 46
v 525 56
v 526 16
v 527 34
v 528 67
v 529 18
v 530 53
v 531 3
v 532 94
v 533 54
v 534 106
v 535 87
v 536 36
v 537 62
v 538 76
v 539 66
v 540 35
v 541 96
v 542 13
v 543 82
v 544 41
v 545 83
v 546 47
v 547 84
v 548 3
v 549 13
v 550 4
v 551 67
v 552 1
v 553 49
v 554 66
v 555 104
v 556 5
v 557 94
v 558 6
v 559 80
v 560 95
v 561 68
v 562 8
v 563 23
v 564 81
v 565 9
v 566 87
v 567 2
v 568 34
v 569 87
v 570 57
v 571 54
v 572 63
v 573 89
v 574 95
v 575 18
v 576 11
v 577 62
v 578 82
v 579 105
v 580 108
v 581 34
v 582 22
v 583 16
v 584 53
v 585 10
v 586 3
v 587 66
v 588 70
v 589 12
v 590 103
v 591 41
v 592 18
v 593 41
v 594 68
v 595 48
v 596 58
v 597 95
v 598 102
v 599 14
v 600 76
v 601 86
v 602 11
v 603 84
v 604 37
v 605 40
v 606 53
v 607 64
v 608 37
v 609 2
v 610 63
v 611 95
v 612 106
v 613 19
v 614 92
v 615 8
v 616 58
v 617 26
v 618 2
v 619 108
v 620 104
v 621 44
v 622 0
v 623 17
v 624 2
v 625 44
v 626 90
v 627 55
v 628 92
v 629 38
v 630 77
v 631 67
v 632 91
v 633 30
v 634 22
v 635 63
v 636 11
v 637 79
v 638 75
v 639 47
v 640 25
v 641 33
v 642 75
v 643 13
v 644 17
v 645 47
v 646 37
v 647 28
v 648 56
v 649 87
v 650 67
v 651 90
v 652 50
v 653 84
v 654 77
v 655 70
v 656 83
v 657 8
v 658 44
v 659 71
v 660 109
v 661 26
v 662 66
v 663 104
v 664 26
v 665 3
v 666 25
v 667 43
v 668 28
v 669 20
v 670 34
v 671 65
v 672 96
v 673 33
v 674 74
v 675 94
v 676 72
v 677 70
v 678 11
v 679 5
v 680 30
v 681 112
v 682 51
v 683 89
v 684 49
v 685 54
v 686 10
v 687 27
v 688 44
v 689 13
v 690 27
v 691 98
v 692 72
v 693 88
v 694 78
v 695 23
v 696 100
v 697 69
v 698 98
v 699 84
v 700 81
v 701 38
v 702 107
v 703 41
v 704 48
v 705 65
v 706 5
v 707 106
v 708 57
v 709 99
v 710 39
v 711 66
v 712 58
v 713 86
v 714 80
v 715 34
v 716 70
v 717 70
v 718 24
v 719 49
v 720 51
v 721 30
v 722 101
v 723 49
v 724 10
v 725 68
v 726 112
v 727 19
v 728 19
v 729 2
v 730 61
v 731 61
v 732 15
v 733 49
v 734 64
v 735 21
v 736 27
v 737 65
v 738 7
v 739 74
v 740 41
v 741 99
v 742 48
v 743 94
v 744 105
v 745 61
v 746 85
v 747 90
v 748 83
v 749 58
v 750 17
v 751 39
v 752 61
v 753 56
v 754 80
v 755 9
v 756 67
v 757 74
v 758 102
v 759 96
v 760 28
v 761 72
v 762 94
v 763 86
v 764 98
v 765 9
v 766 100
v 767 108
v 768 62
v 769 36
v 770 85
v 771 59
v 772 90
v 773 79
v 774 25
v 775 108
v 776 90
v 777 67
v 778 110
v 779 97
v 780 39
v 781 85
v 782 54
v 783 10
v 784 83
v 785 0
v 786 57
v 787 97
v 788 102
v 789 53
v 790 89
v 791 32
v 792 92
v 793 33
v 794 32
v 795 59
v 796 14
v 797 73
v 798 29
v 799 31
v 800 99
v 801 14
v 802 19
v 803 1
v 804 66
v 805 42
v 806 67
v 807 112
v 808 86
v 809 30
v 810 95
v 811 70
v 812 51
v 813 75
v 814 98
v 815 21
v 816 68
v 817 37
v 818 58
v 819 74
v 820 37
v 821 16
v 822 43
v 823 97
v 824 96
v 825 103
v 826 24
v 827 101
v 828 43
v 829 12
v 830 22
v 831 71
v 832 13
v 833 33
v 834 15
v 835 100
v 836 111
v 837 100
v 838 46
v 839 60
v 840 53
v 841 59
v 842 28
v 843 73
v 844 104
v 845 23
v 846 59
v 847 52
v 848 7
v 849 95
v 850 26
v 851 14
v 852 27
v 853 49
v 854 65
v 855 43
v 856 14
v 857 89
v 858 83
v 859 23
v 860 88
v 861 24
v 862 86
v 863 20
v 864 78
v 865 26
v 866 75
v 867 58
v 868 25
v 869 88
v 870 73
v 871 69
v 872 81
v 873 53
v 874 88
v 875 109
v 876 78
v 877 39
v 878 76
v 879 108
v 880 30
v 881 92
v 882 22
v 883 82
v 884 28
v 885 58
v 886 36
v 887 94
v 888 46
v 889 82
v 890 70
v 891 38
v 892 113
v 893 35
v 894 19
v 895 10
v 896 72
v 897 44
v 898 79
v 899 26
v 900 67
v 901 52
v 902 102
v 903 86
v 904 10
v 905 43
v 906 36
v 907 27
v 908 105
v 909 6
v 910 8
v 911 24
v 912 87
v 913 71
v 914 45
v 915 17
v 916 39
v 917 2
v 918 46
v 919 10
v 920 33
v 921 53
v 922 45
v 923 56
v 924 57
v 925 58
v 926 87
v 927 40
v 928 64
v 929 64
v 930 57
v 931 111
v 932 59
v 933 81
v 934 82
v 935 36
v 936 26
v 937 37
v 938 107
v 939 1
v 940 46
v 941 102
v 942 40
v 943 7
v 944 72
v 945 23
v 946 46
v 947 35
v 948 41
v 949 87
v 950 66
v 951 51
v 952 1
v 953 109
v 954 109
v 955 92
v 956 63
v 957 111
v 958 14
v 959 57
v 960 76
v 961 54
v 962 4
v 963 101
v 964 19
v 965 93
v 966 77
v 967 6
v 968 18
v 969 42
v 970 21
v 971 20
v 972 19
v 973 93
v 974 14
v 975 106
v 976 43
v 977 62
v 978 93
v 979 4
v 980 68
v 981 93
v 982 20
v 983 24
v 984 66
v 985 34
v 986 74
v 987 44
v 988 10
v 989 24
v 990 109
v 991 57
v 992 36
v 993 73
v 994 77
v 995 81
v 996 25
v 997 93
v 998 8
v 999 76
v 1000 79
